JulietBench/Juliet_Based_Patch_Bench/qemu/CWE-190-Integer-Overflow-or-Wraparound/CVE_2014_0143_e3737b820b45e54b059656dc3f914f895ac7a88b/cve1/solverbochs_open_Snippet_patch1.smt2
; benchmark generated from python API
(set-info :status unknown)
(declare-fun rdi () (_ BitVec 64))
(declare-fun R () (_ BitVec 32))
(assert
 (let ((?x29 ((_ extract 29 0) rdi)))
 (let ((?x14 (concat ?x29 (_ bv0 2))))
 (let (($x39 (and (distinct R ?x14) true)))
 (let (($x16 (= R ?x14)))
 (let (($x26 (or $x16 $x39)))
 (not $x26)))))))
(check-sat)
